RT is False
Default write of storage_offers_DA.csv just to have a file (but constraint should be inactive)
Reading model...
...model read.
creating competitive generators file...
...competitive generators recorded.
Loading data...
.. day-ahead data with real-time VRE data read.
Compiling instance...
...instance created.
Creating Offer Mitigation (model will solve as dispatch if TRUE)...
Solving...

Welcome to IBM(R) ILOG(R) CPLEX(R) Interactive Optimizer 12.9.0.0
  with Simplex, Mixed Integer & Barrier Optimizers
5725-A06 5725-A29 5724-Y48 5724-Y49 5724-Y54 5724-Y55 5655-Y21
Copyright IBM Corp. 1988, 2019.  All Rights Reserved.

Type 'help' for a list of available commands.
Type 'help' followed by a command name for more
information on commands.

CPLEX> Logfile 'cplex.log' closed.
Logfile 'C:\Users\llavin\Desktop\test919\logs\tmpz3tdejad.cplex.log' open.
CPLEX> New value for parallel optimization mode: -1
CPLEX> New value for mixed integer optimality gap tolerance: 0.01
CPLEX> New value for integrality tolerance: 1e-09
CPLEX> New value for feasibility tolerance: 0.01
CPLEX> New value for deterministic time limit in ticks: 75000
CPLEX> Problem 'C:\Users\llavin\Desktop\test919\logs\tmpvreb5w3_.pyomo.lp' read.
Read time = 0.06 sec. (3.04 ticks)
CPLEX> Problem name         : C:\Users\llavin\Desktop\test919\logs\tmpvreb5w3_.pyomo.lp
Objective sense      : Minimize
Variables            :   26081  [Nneg: 1,  Box: 21616,  Free: 4464]
Objective nonzeros   :    2496
Linear constraints   :   27515  [Less: 14006,  Greater: 4416,  Equal: 9093]
  Nonzeros           :   89267
  RHS nonzeros       :   12271

Variables            : Min LB: -5000.000        Max UB: 1000000.       
Objective nonzeros   : Min   : 15.73158         Max   : 124.0997       
Linear constraints   :
  Nonzeros           : Min   : 0.8500000        Max   : 3000.000       
  RHS nonzeros       : Min   : 0.4000000        Max   : 5000.000       
CPLEX> CPXPARAM_Parallel                                -1
CPXPARAM_Simplex_Tolerances_Feasibility          0.01
CPXPARAM_DetTimeLimit                            75000
CPXPARAM_MIP_Tolerances_MIPGap                   0.01
CPXPARAM_MIP_Tolerances_Integrality              1.0000000000000001e-09
Parallel mode: opportunistic, using up to 32 threads for concurrent optimization.
Tried aggregator 1 time.
LP Presolve eliminated 21353 rows and 15463 columns.
Aggregator did 770 substitutions.
Reduced LP has 5392 rows, 9848 columns, and 31812 nonzeros.
Presolve time = 0.06 sec. (30.45 ticks)
Symmetry aggregator did 5563 additional substitutions.

Iteration log . . .
Iteration:     1   Dual objective     =             0.000000
Perturbation started.
Iteration:   101   Dual objective     =             0.000000
Iteration:   331   Dual objective     =             1.128310
Iteration:   582   Dual objective     =             1.659323
Iteration:   841   Dual objective     =             1.798611
Iteration:  1047   Dual objective     =             1.912948
Iteration:  1320   Dual objective     =             1.960925
Iteration:  1568   Dual objective     =             1.990670
Iteration:  1789   Dual objective     =        298630.051316
Iteration:  1990   Dual objective     =        521547.618178
Iteration:  2171   Dual objective     =        565959.050890
Iteration:  2355   Dual objective     =        567804.257098
Iteration:  2636   Dual objective     =        568265.628342
Iteration:  3053   Dual objective     =        569489.880037
Removing perturbation.

Dual crossover.
  Dual:  Fixing 13 variables.
Using devex.

Primal simplex solved model.


Primal simplex - Optimal:  Objective =  5.6948778598e+05
Solution time =    0.17 sec.  Iterations = 1676 (998)
Deterministic time = 82.30 ticks  (478.47 ticks/sec)

CPLEX> Solution written to file 'C:\Users\llavin\Desktop\test919\logs\tmp5d6y2lks.cplex.sol'.
CPLEX> Exporting results... 
...storage offer mitigation file created
Converting model to MPEC...
...converted
NOTE: initial MIP solve with only storage competitive to get feasible solution
Solving...

Welcome to IBM(R) ILOG(R) CPLEX(R) Interactive Optimizer 12.9.0.0
  with Simplex, Mixed Integer & Barrier Optimizers
5725-A06 5725-A29 5724-Y48 5724-Y49 5724-Y54 5724-Y55 5655-Y21
Copyright IBM Corp. 1988, 2019.  All Rights Reserved.

Type 'help' for a list of available commands.
Type 'help' followed by a command name for more
information on commands.

CPLEX> Logfile 'cplex.log' closed.
Logfile 'C:\Users\llavin\Desktop\test919\logs\tmpb6ttl864.cplex.log' open.
CPLEX> New value for parallel optimization mode: -1
CPLEX> New value for mixed integer optimality gap tolerance: 0.01
CPLEX> New value for integrality tolerance: 1e-09
CPLEX> New value for feasibility tolerance: 0.01
CPLEX> New value for deterministic time limit in ticks: 75000
CPLEX> Problem 'C:\Users\llavin\Desktop\test919\logs\tmpm_j4kr2s.pyomo.lp' read.
Read time = 0.25 sec. (14.78 ticks)
CPLEX> Problem name         : C:\Users\llavin\Desktop\test919\logs\tmpm_j4kr2s.pyomo.lp
Objective sense      : Maximize
Variables            :   53805  [Nneg: 1,  Box: 22000,  Free: 4464,
                                 Binary: 27340]
Objective nonzeros   :    8980
Linear constraints   :  123205  [Less: 41346,  Greater: 59096,  Equal: 22763]
  Nonzeros           :  291801
  RHS nonzeros       :   67465

Variables            : Min LB: -5000.000        Max UB: 1000000.       
Objective nonzeros   : Min   : 0.4000000        Max   : 760.4917       
Linear constraints   :
  Nonzeros           : Min   : 0.4000000        Max   : 1000000.       
  RHS nonzeros       : Min   : 0.4000000        Max   : 1000000.       
CPLEX> CPXPARAM_Parallel                                -1
CPXPARAM_Simplex_Tolerances_Feasibility          0.01
CPXPARAM_DetTimeLimit                            75000
CPXPARAM_MIP_Tolerances_MIPGap                   0.01
CPXPARAM_MIP_Tolerances_Integrality              1.0000000000000001e-09
Tried aggregator 3 times.
MIP Presolve eliminated 88695 rows and 18995 columns.
MIP Presolve added 3366 rows and 0 columns.
MIP Presolve modified 24734 coefficients.
Aggregator did 12945 substitutions.
Reduced MIP has 24931 rows, 21309 columns, and 71128 nonzeros.
Reduced MIP has 8394 binaries, 0 generals, 0 SOSs, and 0 indicators.
Presolve time = 0.30 sec. (175.94 ticks)
Probing fixed 399 vars, tightened 2850 bounds.
Probing time = 1.22 sec. (897.45 ticks)
Tried aggregator 2 times.
MIP Presolve eliminated 905 rows and 799 columns.
MIP Presolve modified 2192 coefficients.
Aggregator did 44 substitutions.
Reduced MIP has 23982 rows, 20466 columns, and 68382 nonzeros.
Reduced MIP has 7995 binaries, 0 generals, 0 SOSs, and 0 indicators.
Presolve time = 0.11 sec. (68.64 ticks)
Probing time = 0.05 sec. (16.24 ticks)
Clique table members: 6447.
MIP emphasis: balance optimality and feasibility.
MIP search method: dynamic search.
Parallel mode: opportunistic, using up to 32 threads.
Root relaxation solution time = 0.36 sec. (286.38 ticks)

        Nodes                                         Cuts/
   Node  Left     Objective  IInf  Best Integer    Best Bound    ItCnt     Gap

      0     0     8411.9089  1915                   8411.9089     6345         
      0     0     8411.7566    48                    Cuts: 24     6360         
      0     0     8411.7566    50                    Cuts: 20     6371         
      0     2     8411.7566    15                    Cuts: 10     6371         
Elapsed time = 8.98 sec. (5189.97 ticks, tree = 0.02 MB, solutions = 0)
    534   378    infeasible                         8395.6182     8469         
    809   537    infeasible                         8395.6182     9526         
   1018   652     5756.4490     4                   8395.6182    10466         
   1192   651     5756.4490     3                   8395.6182    10467         
   1329   685     5756.4490     3                   8395.6182    10837         
   1458   697     8368.4072     3                   8395.6182    10907         
   1565   698     8368.4072     3                   8395.6182    10933         
   1664   745     5787.4486     5                   8395.6182    11208         
   1756   749    infeasible                         8395.6182    11231         
   2082   789     8368.4072     3                   8395.6182    11489         
Elapsed time = 18.58 sec. (8308.49 ticks, tree = 3.04 MB, solutions = 0)
   2362   878     8356.6125     3                   8395.6182    12044         
   2605   877    infeasible                         8395.6182    12040         
   2840   911     8368.4072     3                   8395.6182    12342         
   3090   928     8352.9041     2                   8395.6182    12465         
   3408   992     8368.4072     3                   8395.6182    13037         
*  3677+ 1149                         7126.6712     8395.6182            17.81%
   3957  1169    infeasible           7126.6712     8395.6182    15302   17.81%
   4280  1150     8392.0425     4     7126.6712     8395.6182    18584   17.81%
*  4548  1106      integral     0     8392.0425     8395.6182    18590    0.04%
*  4716  1106      integral     0     8392.0425     8395.6182    20233    0.04%
Elapsed time = 32.25 sec. (17575.21 ticks, tree = 4.23 MB, solutions = 5)
*  4765  1108      integral     0     8392.0425     8395.6182    19639    0.04%
   4882  1158     8360.0785     3     8392.0425     8395.6182    20029    0.04%

Cover cuts applied:  2
Implied bound cuts applied:  1
Flow cuts applied:  16
Gomory fractional cuts applied:  9

Root node processing (before b&c):
  Real time             =    7.56 sec. (5155.75 ticks)
Parallel b&c, 32 threads:
  Real time             =   25.31 sec. (14209.79 ticks)
  Sync time (average)   =    0.83 sec.
  Wait time (average)   =    0.00 sec.
                          ------------
Total (root+branch&cut) =   32.88 sec. (19365.54 ticks)

Solution pool: 5 solutions saved.

MIP - Integer optimal, tolerance (0.01/1e-06):  Objective =  8.3920425096e+03
Current MIP best bound =  8.3956181548e+03 (gap = 3.57565, 0.04%)
Solution time =   32.91 sec.  Iterations = 23570  Nodes = 4895 (15)
Deterministic time = 19365.69 ticks  (588.50 ticks/sec)

CPLEX> Incumbent solution written to file 'C:\Users\llavin\Desktop\test919\logs\tmpswi89u6p.cplex.sol'.
CPLEX> NOTE: no warmstart specified for MIP iteration, default behavior is true
NOTE: resolving with all competitive generators using storage-only solution to warmstart
Solving...

Welcome to IBM(R) ILOG(R) CPLEX(R) Interactive Optimizer 12.9.0.0
  with Simplex, Mixed Integer & Barrier Optimizers
5725-A06 5725-A29 5724-Y48 5724-Y49 5724-Y54 5724-Y55 5655-Y21
Copyright IBM Corp. 1988, 2019.  All Rights Reserved.

Type 'help' for a list of available commands.
Type 'help' followed by a command name for more
information on commands.

CPLEX> Logfile 'cplex.log' closed.
Logfile 'C:\Users\llavin\Desktop\test919\logs\tmp4787_2ax.cplex.log' open.
CPLEX> New value for parallel optimization mode: -1
CPLEX> New value for mixed integer optimality gap tolerance: 0.01
CPLEX> New value for integrality tolerance: 1e-09
CPLEX> New value for feasibility tolerance: 0.01
CPLEX> New value for deterministic time limit in ticks: 75000
CPLEX> Problem 'C:\Users\llavin\Desktop\test919\logs\tmp1k99x4sa.pyomo.lp' read.
Read time = 0.23 sec. (14.81 ticks)
CPLEX> MIP start file 'C:\Users\llavin\Desktop\test919\logs\tmp8f1us_8b.cplex.mst' read.
CPLEX> Problem name         : C:\Users\llavin\Desktop\test919\logs\tmp1k99x4sa.pyomo.lp
Objective sense      : Maximize
Variables            :   54525  [Nneg: 1,  Box: 22720,  Free: 4464,
                                 Binary: 27340]
Objective nonzeros   :    9676
Linear constraints   :  123205  [Less: 41346,  Greater: 59096,  Equal: 22763]
  Nonzeros           :  291801
  RHS nonzeros       :   67465

Variables            : Min LB: -5000.000        Max UB: 1000000.       
Objective nonzeros   : Min   : 0.4000000        Max   : 760.4917       
Linear constraints   :
  Nonzeros           : Min   : 0.4000000        Max   : 1000000.       
  RHS nonzeros       : Min   : 0.4000000        Max   : 1000000.       
CPLEX> CPXPARAM_Parallel                                -1
CPXPARAM_Simplex_Tolerances_Feasibility          0.01
CPXPARAM_DetTimeLimit                            75000
CPXPARAM_MIP_Tolerances_MIPGap                   0.01
CPXPARAM_MIP_Tolerances_Integrality              1.0000000000000001e-09
Warning:  No solution found from 1 MIP starts.
Retaining values of one MIP start for possible repair.
Tried aggregator 3 times.
MIP Presolve eliminated 88695 rows and 19715 columns.
MIP Presolve added 3366 rows and 0 columns.
MIP Presolve modified 24734 coefficients.
Aggregator did 12945 substitutions.
Reduced MIP has 24931 rows, 21309 columns, and 71128 nonzeros.
Reduced MIP has 8394 binaries, 0 generals, 0 SOSs, and 0 indicators.
Presolve time = 0.30 sec. (176.31 ticks)
Probing fixed 399 vars, tightened 2850 bounds.
Probing time = 1.22 sec. (897.45 ticks)
Tried aggregator 2 times.
MIP Presolve eliminated 905 rows and 799 columns.
MIP Presolve modified 2192 coefficients.
Aggregator did 44 substitutions.
Reduced MIP has 23982 rows, 20466 columns, and 68382 nonzeros.
Reduced MIP has 7995 binaries, 0 generals, 0 SOSs, and 0 indicators.
Presolve time = 0.11 sec. (68.63 ticks)
Probing time = 0.05 sec. (16.24 ticks)
Clique table members: 6447.
MIP emphasis: balance optimality and feasibility.
MIP search method: dynamic search.
Parallel mode: opportunistic, using up to 32 threads.
Root relaxation solution time = 0.38 sec. (290.18 ticks)

        Nodes                                         Cuts/
   Node  Left     Objective  IInf  Best Integer    Best Bound    ItCnt     Gap

      0     0    11354.7869  1912                  11354.7869     6343         
      0     0    11354.6456    38                    Cuts: 20     6356         
      0     0    11354.6456    34                    Cuts: 10     6361         
Repair heuristic found nothing.
      0    30    infeasible                        11354.4720     6474         
Elapsed time = 9.67 sec. (5994.13 ticks, tree = 0.02 MB, solutions = 0)
*   268   112      integral     0    11270.9510    11335.4868     6923    0.57%

Flow cuts applied:  12
Gomory fractional cuts applied:  6

Root node processing (before b&c):
  Real time             =    8.64 sec. (5982.18 ticks)
Parallel b&c, 32 threads:
  Real time             =    2.69 sec. (377.92 ticks)
  Sync time (average)   =    0.43 sec.
  Wait time (average)   =    0.00 sec.
                          ------------
Total (root+branch&cut) =   11.33 sec. (6360.11 ticks)

Solution pool: 2 solutions saved.

MIP - Integer optimal, tolerance (0.01/1e-06):  Objective =  1.1270950968e+04
Current MIP best bound =  1.1335486799e+04 (gap = 64.5358, 0.57%)
Solution time =   11.36 sec.  Iterations = 9103  Nodes = 687 (300)
Deterministic time = 6360.26 ticks  (559.88 ticks/sec)

CPLEX> Incumbent solution written to file 'C:\Users\llavin\Desktop\test919\logs\tmpwaua6hy1.cplex.sol'.
CPLEX> Exporting results... 
